\ Model student-teams
\ LP format - for model browsing. Use MPS format to capture full model detail.
Maximize
  z + 0 z[0] + 0 z[1] + 0 z[2] + 0 z[3] + 0 z[4] + 0 z[5] + 0 z[6] + 0 z[7]
   + 0 z[8] + 0 z[9] + 0 z[10] + 0 z[11] + 0 z[12] + 0 z[13] + 0 z[14]
   + 0 z[15] + 0 z[16] + 0 z[17] + 0 z2[0] + 0 z2[1] + 0 z2[2] + 0 z2[3]
   + 0 z2[4] + 0 z2[5] + 0 z2[6] + 0 z2[7] + 0 z2[8] + 0 z2[9] + 0 z2[10]
   + 0 z2[11] + 0 z2[12] + 0 z2[13] + 0 z2[14] + 0 z2[15] + 0 z2[16]
   + 0 z2[17] + 0 z3[0] + 0 z3[1] + 0 z3[2] + 0 z3[3] + 0 z3[4] + 0 z3[5]
   + 0 z3[6] + 0 z3[7] + 0 z3[8] + 0 z3[9] + 0 z3[10] + 0 z3[11] + 0 z3[12]
   + 0 z3[13] + 0 z3[14] + 0 z3[15] + 0 z3[16] + 0 z3[17]
Subject To
 R0: x[0,0] + x[0,1] + x[0,2] + x[0,3] + x[0,4] + x[0,5] + x[0,6] + x[0,7]
   + x[0,8] + x[0,9] + x[0,10] + x[0,11] + x[0,12] + x[0,13] + x[0,14]
   + x[0,15] + x[0,16] + x[0,17] = 1
 R1: x[1,0] + x[1,1] + x[1,2] + x[1,3] + x[1,4] + x[1,5] + x[1,6] + x[1,7]
   + x[1,8] + x[1,9] + x[1,10] + x[1,11] + x[1,12] + x[1,13] + x[1,14]
   + x[1,15] + x[1,16] + x[1,17] = 1
 R2: x[2,0] + x[2,1] + x[2,2] + x[2,3] + x[2,4] + x[2,5] + x[2,6] + x[2,7]
   + x[2,8] + x[2,9] + x[2,10] + x[2,11] + x[2,12] + x[2,13] + x[2,14]
   + x[2,15] + x[2,16] + x[2,17] = 1
 R3: x[3,0] + x[3,1] + x[3,2] + x[3,3] + x[3,4] + x[3,5] + x[3,6] + x[3,7]
   + x[3,8] + x[3,9] + x[3,10] + x[3,11] + x[3,12] + x[3,13] + x[3,14]
   + x[3,15] + x[3,16] + x[3,17] = 1
 R4: x[4,0] + x[4,1] + x[4,2] + x[4,3] + x[4,4] + x[4,5] + x[4,6] + x[4,7]
   + x[4,8] + x[4,9] + x[4,10] + x[4,11] + x[4,12] + x[4,13] + x[4,14]
   + x[4,15] + x[4,16] + x[4,17] = 1
 R5: x[5,0] + x[5,1] + x[5,2] + x[5,3] + x[5,4] + x[5,5] + x[5,6] + x[5,7]
   + x[5,8] + x[5,9] + x[5,10] + x[5,11] + x[5,12] + x[5,13] + x[5,14]
   + x[5,15] + x[5,16] + x[5,17] = 1
 R6: x[6,0] + x[6,1] + x[6,2] + x[6,3] + x[6,4] + x[6,5] + x[6,6] + x[6,7]
   + x[6,8] + x[6,9] + x[6,10] + x[6,11] + x[6,12] + x[6,13] + x[6,14]
   + x[6,15] + x[6,16] + x[6,17] = 1
 R7: x[7,0] + x[7,1] + x[7,2] + x[7,3] + x[7,4] + x[7,5] + x[7,6] + x[7,7]
   + x[7,8] + x[7,9] + x[7,10] + x[7,11] + x[7,12] + x[7,13] + x[7,14]
   + x[7,15] + x[7,16] + x[7,17] = 1
 R8: x[8,0] + x[8,1] + x[8,2] + x[8,3] + x[8,4] + x[8,5] + x[8,6] + x[8,7]
   + x[8,8] + x[8,9] + x[8,10] + x[8,11] + x[8,12] + x[8,13] + x[8,14]
   + x[8,15] + x[8,16] + x[8,17] = 1
 R9: x[9,0] + x[9,1] + x[9,2] + x[9,3] + x[9,4] + x[9,5] + x[9,6] + x[9,7]
   + x[9,8] + x[9,9] + x[9,10] + x[9,11] + x[9,12] + x[9,13] + x[9,14]
   + x[9,15] + x[9,16] + x[9,17] = 1
 R10: x[10,0] + x[10,1] + x[10,2] + x[10,3] + x[10,4] + x[10,5] + x[10,6]
   + x[10,7] + x[10,8] + x[10,9] + x[10,10] + x[10,11] + x[10,12]
   + x[10,13] + x[10,14] + x[10,15] + x[10,16] + x[10,17] = 1
 R11: x[11,0] + x[11,1] + x[11,2] + x[11,3] + x[11,4] + x[11,5] + x[11,6]
   + x[11,7] + x[11,8] + x[11,9] + x[11,10] + x[11,11] + x[11,12]
   + x[11,13] + x[11,14] + x[11,15] + x[11,16] + x[11,17] = 1
 R12: x[12,0] + x[12,1] + x[12,2] + x[12,3] + x[12,4] + x[12,5] + x[12,6]
   + x[12,7] + x[12,8] + x[12,9] + x[12,10] + x[12,11] + x[12,12]
   + x[12,13] + x[12,14] + x[12,15] + x[12,16] + x[12,17] = 1
 R13: x[13,0] + x[13,1] + x[13,2] + x[13,3] + x[13,4] + x[13,5] + x[13,6]
   + x[13,7] + x[13,8] + x[13,9] + x[13,10] + x[13,11] + x[13,12]
   + x[13,13] + x[13,14] + x[13,15] + x[13,16] + x[13,17] = 1
 R14: x[14,0] + x[14,1] + x[14,2] + x[14,3] + x[14,4] + x[14,5] + x[14,6]
   + x[14,7] + x[14,8] + x[14,9] + x[14,10] + x[14,11] + x[14,12]
   + x[14,13] + x[14,14] + x[14,15] + x[14,16] + x[14,17] = 1
 R15: x[15,0] + x[15,1] + x[15,2] + x[15,3] + x[15,4] + x[15,5] + x[15,6]
   + x[15,7] + x[15,8] + x[15,9] + x[15,10] + x[15,11] + x[15,12]
   + x[15,13] + x[15,14] + x[15,15] + x[15,16] + x[15,17] = 1
 R16: x[16,0] + x[16,1] + x[16,2] + x[16,3] + x[16,4] + x[16,5] + x[16,6]
   + x[16,7] + x[16,8] + x[16,9] + x[16,10] + x[16,11] + x[16,12]
   + x[16,13] + x[16,14] + x[16,15] + x[16,16] + x[16,17] = 1
 R17: x[17,0] + x[17,1] + x[17,2] + x[17,3] + x[17,4] + x[17,5] + x[17,6]
   + x[17,7] + x[17,8] + x[17,9] + x[17,10] + x[17,11] + x[17,12]
   + x[17,13] + x[17,14] + x[17,15] + x[17,16] + x[17,17] = 1
 R18: x[18,0] + x[18,1] + x[18,2] + x[18,3] + x[18,4] + x[18,5] + x[18,6]
   + x[18,7] + x[18,8] + x[18,9] + x[18,10] + x[18,11] + x[18,12]
   + x[18,13] + x[18,14] + x[18,15] + x[18,16] + x[18,17] = 1
 R19: x[19,0] + x[19,1] + x[19,2] + x[19,3] + x[19,4] + x[19,5] + x[19,6]
   + x[19,7] + x[19,8] + x[19,9] + x[19,10] + x[19,11] + x[19,12]
   + x[19,13] + x[19,14] + x[19,15] + x[19,16] + x[19,17] = 1
 R20: x[20,0] + x[20,1] + x[20,2] + x[20,3] + x[20,4] + x[20,5] + x[20,6]
   + x[20,7] + x[20,8] + x[20,9] + x[20,10] + x[20,11] + x[20,12]
   + x[20,13] + x[20,14] + x[20,15] + x[20,16] + x[20,17] = 1
 R21: x[21,0] + x[21,1] + x[21,2] + x[21,3] + x[21,4] + x[21,5] + x[21,6]
   + x[21,7] + x[21,8] + x[21,9] + x[21,10] + x[21,11] + x[21,12]
   + x[21,13] + x[21,14] + x[21,15] + x[21,16] + x[21,17] = 1
 R22: x[22,0] + x[22,1] + x[22,2] + x[22,3] + x[22,4] + x[22,5] + x[22,6]
   + x[22,7] + x[22,8] + x[22,9] + x[22,10] + x[22,11] + x[22,12]
   + x[22,13] + x[22,14] + x[22,15] + x[22,16] + x[22,17] = 1
 R23: x[23,0] + x[23,1] + x[23,2] + x[23,3] + x[23,4] + x[23,5] + x[23,6]
   + x[23,7] + x[23,8] + x[23,9] + x[23,10] + x[23,11] + x[23,12]
   + x[23,13] + x[23,14] + x[23,15] + x[23,16] + x[23,17] = 1
 R24: x[24,0] + x[24,1] + x[24,2] + x[24,3] + x[24,4] + x[24,5] + x[24,6]
   + x[24,7] + x[24,8] + x[24,9] + x[24,10] + x[24,11] + x[24,12]
   + x[24,13] + x[24,14] + x[24,15] + x[24,16] + x[24,17] = 1
 R25: x[25,0] + x[25,1] + x[25,2] + x[25,3] + x[25,4] + x[25,5] + x[25,6]
   + x[25,7] + x[25,8] + x[25,9] + x[25,10] + x[25,11] + x[25,12]
   + x[25,13] + x[25,14] + x[25,15] + x[25,16] + x[25,17] = 1
 R26: x[26,0] + x[26,1] + x[26,2] + x[26,3] + x[26,4] + x[26,5] + x[26,6]
   + x[26,7] + x[26,8] + x[26,9] + x[26,10] + x[26,11] + x[26,12]
   + x[26,13] + x[26,14] + x[26,15] + x[26,16] + x[26,17] = 1
 R27: x[27,0] + x[27,1] + x[27,2] + x[27,3] + x[27,4] + x[27,5] + x[27,6]
   + x[27,7] + x[27,8] + x[27,9] + x[27,10] + x[27,11] + x[27,12]
   + x[27,13] + x[27,14] + x[27,15] + x[27,16] + x[27,17] = 1
 R28: x[28,0] + x[28,1] + x[28,2] + x[28,3] + x[28,4] + x[28,5] + x[28,6]
   + x[28,7] + x[28,8] + x[28,9] + x[28,10] + x[28,11] + x[28,12]
   + x[28,13] + x[28,14] + x[28,15] + x[28,16] + x[28,17] = 1
 R29: x[29,0] + x[29,1] + x[29,2] + x[29,3] + x[29,4] + x[29,5] + x[29,6]
   + x[29,7] + x[29,8] + x[29,9] + x[29,10] + x[29,11] + x[29,12]
   + x[29,13] + x[29,14] + x[29,15] + x[29,16] + x[29,17] = 1
 R30: x[30,0] + x[30,1] + x[30,2] + x[30,3] + x[30,4] + x[30,5] + x[30,6]
   + x[30,7] + x[30,8] + x[30,9] + x[30,10] + x[30,11] + x[30,12]
   + x[30,13] + x[30,14] + x[30,15] + x[30,16] + x[30,17] = 1
 R31: x[31,0] + x[31,1] + x[31,2] + x[31,3] + x[31,4] + x[31,5] + x[31,6]
   + x[31,7] + x[31,8] + x[31,9] + x[31,10] + x[31,11] + x[31,12]
   + x[31,13] + x[31,14] + x[31,15] + x[31,16] + x[31,17] = 1
 R32: x[32,0] + x[32,1] + x[32,2] + x[32,3] + x[32,4] + x[32,5] + x[32,6]
   + x[32,7] + x[32,8] + x[32,9] + x[32,10] + x[32,11] + x[32,12]
   + x[32,13] + x[32,14] + x[32,15] + x[32,16] + x[32,17] = 1
 R33: x[33,0] + x[33,1] + x[33,2] + x[33,3] + x[33,4] + x[33,5] + x[33,6]
   + x[33,7] + x[33,8] + x[33,9] + x[33,10] + x[33,11] + x[33,12]
   + x[33,13] + x[33,14] + x[33,15] + x[33,16] + x[33,17] = 1
 R34: x[34,0] + x[34,1] + x[34,2] + x[34,3] + x[34,4] + x[34,5] + x[34,6]
   + x[34,7] + x[34,8] + x[34,9] + x[34,10] + x[34,11] + x[34,12]
   + x[34,13] + x[34,14] + x[34,15] + x[34,16] + x[34,17] = 1
 R35: x[35,0] + x[35,1] + x[35,2] + x[35,3] + x[35,4] + x[35,5] + x[35,6]
   + x[35,7] + x[35,8] + x[35,9] + x[35,10] + x[35,11] + x[35,12]
   + x[35,13] + x[35,14] + x[35,15] + x[35,16] + x[35,17] = 1
 R36: x[36,0] + x[36,1] + x[36,2] + x[36,3] + x[36,4] + x[36,5] + x[36,6]
   + x[36,7] + x[36,8] + x[36,9] + x[36,10] + x[36,11] + x[36,12]
   + x[36,13] + x[36,14] + x[36,15] + x[36,16] + x[36,17] = 1
 R37: x[0,0] + x[1,0] + x[2,0] + x[3,0] + x[4,0] + x[5,0] + x[6,0] + x[7,0]
   + x[8,0] + x[9,0] + x[10,0] + x[11,0] + x[12,0] + x[13,0] + x[14,0]
   + x[15,0] + x[16,0] + x[17,0] + x[18,0] + x[19,0] + x[20,0] + x[21,0]
   + x[22,0] + x[23,0] + x[24,0] + x[25,0] + x[26,0] + x[27,0] + x[28,0]
   + x[29,0] + x[30,0] + x[31,0] + x[32,0] + x[33,0] + x[34,0] + x[35,0]
   + x[36,0] - 2 y[0] >= 0
 R38: x[0,1] + x[1,1] + x[2,1] + x[3,1] + x[4,1] + x[5,1] + x[6,1] + x[7,1]
   + x[8,1] + x[9,1] + x[10,1] + x[11,1] + x[12,1] + x[13,1] + x[14,1]
   + x[15,1] + x[16,1] + x[17,1] + x[18,1] + x[19,1] + x[20,1] + x[21,1]
   + x[22,1] + x[23,1] + x[24,1] + x[25,1] + x[26,1] + x[27,1] + x[28,1]
   + x[29,1] + x[30,1] + x[31,1] + x[32,1] + x[33,1] + x[34,1] + x[35,1]
   + x[36,1] - 2 y[1] >= 0
 R39: x[0,2] + x[1,2] + x[2,2] + x[3,2] + x[4,2] + x[5,2] + x[6,2] + x[7,2]
   + x[8,2] + x[9,2] + x[10,2] + x[11,2] + x[12,2] + x[13,2] + x[14,2]
   + x[15,2] + x[16,2] + x[17,2] + x[18,2] + x[19,2] + x[20,2] + x[21,2]
   + x[22,2] + x[23,2] + x[24,2] + x[25,2] + x[26,2] + x[27,2] + x[28,2]
   + x[29,2] + x[30,2] + x[31,2] + x[32,2] + x[33,2] + x[34,2] + x[35,2]
   + x[36,2] - 2 y[2] >= 0
 R40: x[0,3] + x[1,3] + x[2,3] + x[3,3] + x[4,3] + x[5,3] + x[6,3] + x[7,3]
   + x[8,3] + x[9,3] + x[10,3] + x[11,3] + x[12,3] + x[13,3] + x[14,3]
   + x[15,3] + x[16,3] + x[17,3] + x[18,3] + x[19,3] + x[20,3] + x[21,3]
   + x[22,3] + x[23,3] + x[24,3] + x[25,3] + x[26,3] + x[27,3] + x[28,3]
   + x[29,3] + x[30,3] + x[31,3] + x[32,3] + x[33,3] + x[34,3] + x[35,3]
   + x[36,3] - 2 y[3] >= 0
 R41: x[0,4] + x[1,4] + x[2,4] + x[3,4] + x[4,4] + x[5,4] + x[6,4] + x[7,4]
   + x[8,4] + x[9,4] + x[10,4] + x[11,4] + x[12,4] + x[13,4] + x[14,4]
   + x[15,4] + x[16,4] + x[17,4] + x[18,4] + x[19,4] + x[20,4] + x[21,4]
   + x[22,4] + x[23,4] + x[24,4] + x[25,4] + x[26,4] + x[27,4] + x[28,4]
   + x[29,4] + x[30,4] + x[31,4] + x[32,4] + x[33,4] + x[34,4] + x[35,4]
   + x[36,4] - 2 y[4] >= 0
 R42: x[0,5] + x[1,5] + x[2,5] + x[3,5] + x[4,5] + x[5,5] + x[6,5] + x[7,5]
   + x[8,5] + x[9,5] + x[10,5] + x[11,5] + x[12,5] + x[13,5] + x[14,5]
   + x[15,5] + x[16,5] + x[17,5] + x[18,5] + x[19,5] + x[20,5] + x[21,5]
   + x[22,5] + x[23,5] + x[24,5] + x[25,5] + x[26,5] + x[27,5] + x[28,5]
   + x[29,5] + x[30,5] + x[31,5] + x[32,5] + x[33,5] + x[34,5] + x[35,5]
   + x[36,5] - 2 y[5] >= 0
 R43: x[0,6] + x[1,6] + x[2,6] + x[3,6] + x[4,6] + x[5,6] + x[6,6] + x[7,6]
   + x[8,6] + x[9,6] + x[10,6] + x[11,6] + x[12,6] + x[13,6] + x[14,6]
   + x[15,6] + x[16,6] + x[17,6] + x[18,6] + x[19,6] + x[20,6] + x[21,6]
   + x[22,6] + x[23,6] + x[24,6] + x[25,6] + x[26,6] + x[27,6] + x[28,6]
   + x[29,6] + x[30,6] + x[31,6] + x[32,6] + x[33,6] + x[34,6] + x[35,6]
   + x[36,6] - 2 y[6] >= 0
 R44: x[0,7] + x[1,7] + x[2,7] + x[3,7] + x[4,7] + x[5,7] + x[6,7] + x[7,7]
   + x[8,7] + x[9,7] + x[10,7] + x[11,7] + x[12,7] + x[13,7] + x[14,7]
   + x[15,7] + x[16,7] + x[17,7] + x[18,7] + x[19,7] + x[20,7] + x[21,7]
   + x[22,7] + x[23,7] + x[24,7] + x[25,7] + x[26,7] + x[27,7] + x[28,7]
   + x[29,7] + x[30,7] + x[31,7] + x[32,7] + x[33,7] + x[34,7] + x[35,7]
   + x[36,7] - 2 y[7] >= 0
 R45: x[0,8] + x[1,8] + x[2,8] + x[3,8] + x[4,8] + x[5,8] + x[6,8] + x[7,8]
   + x[8,8] + x[9,8] + x[10,8] + x[11,8] + x[12,8] + x[13,8] + x[14,8]
   + x[15,8] + x[16,8] + x[17,8] + x[18,8] + x[19,8] + x[20,8] + x[21,8]
   + x[22,8] + x[23,8] + x[24,8] + x[25,8] + x[26,8] + x[27,8] + x[28,8]
   + x[29,8] + x[30,8] + x[31,8] + x[32,8] + x[33,8] + x[34,8] + x[35,8]
   + x[36,8] - 2 y[8] >= 0
 R46: x[0,9] + x[1,9] + x[2,9] + x[3,9] + x[4,9] + x[5,9] + x[6,9] + x[7,9]
   + x[8,9] + x[9,9] + x[10,9] + x[11,9] + x[12,9] + x[13,9] + x[14,9]
   + x[15,9] + x[16,9] + x[17,9] + x[18,9] + x[19,9] + x[20,9] + x[21,9]
   + x[22,9] + x[23,9] + x[24,9] + x[25,9] + x[26,9] + x[27,9] + x[28,9]
   + x[29,9] + x[30,9] + x[31,9] + x[32,9] + x[33,9] + x[34,9] + x[35,9]
   + x[36,9] - 2 y[9] >= 0
 R47: x[0,10] + x[1,10] + x[2,10] + x[3,10] + x[4,10] + x[5,10] + x[6,10]
   + x[7,10] + x[8,10] + x[9,10] + x[10,10] + x[11,10] + x[12,10]
   + x[13,10] + x[14,10] + x[15,10] + x[16,10] + x[17,10] + x[18,10]
   + x[19,10] + x[20,10] + x[21,10] + x[22,10] + x[23,10] + x[24,10]
   + x[25,10] + x[26,10] + x[27,10] + x[28,10] + x[29,10] + x[30,10]
   + x[31,10] + x[32,10] + x[33,10] + x[34,10] + x[35,10] + x[36,10]
   - 2 y[10] >= 0
 R48: x[0,11] + x[1,11] + x[2,11] + x[3,11] + x[4,11] + x[5,11] + x[6,11]
   + x[7,11] + x[8,11] + x[9,11] + x[10,11] + x[11,11] + x[12,11]
   + x[13,11] + x[14,11] + x[15,11] + x[16,11] + x[17,11] + x[18,11]
   + x[19,11] + x[20,11] + x[21,11] + x[22,11] + x[23,11] + x[24,11]
   + x[25,11] + x[26,11] + x[27,11] + x[28,11] + x[29,11] + x[30,11]
   + x[31,11] + x[32,11] + x[33,11] + x[34,11] + x[35,11] + x[36,11]
   - 2 y[11] >= 0
 R49: x[0,12] + x[1,12] + x[2,12] + x[3,12] + x[4,12] + x[5,12] + x[6,12]
   + x[7,12] + x[8,12] + x[9,12] + x[10,12] + x[11,12] + x[12,12]
   + x[13,12] + x[14,12] + x[15,12] + x[16,12] + x[17,12] + x[18,12]
   + x[19,12] + x[20,12] + x[21,12] + x[22,12] + x[23,12] + x[24,12]
   + x[25,12] + x[26,12] + x[27,12] + x[28,12] + x[29,12] + x[30,12]
   + x[31,12] + x[32,12] + x[33,12] + x[34,12] + x[35,12] + x[36,12]
   - 2 y[12] >= 0
 R50: x[0,13] + x[1,13] + x[2,13] + x[3,13] + x[4,13] + x[5,13] + x[6,13]
   + x[7,13] + x[8,13] + x[9,13] + x[10,13] + x[11,13] + x[12,13]
   + x[13,13] + x[14,13] + x[15,13] + x[16,13] + x[17,13] + x[18,13]
   + x[19,13] + x[20,13] + x[21,13] + x[22,13] + x[23,13] + x[24,13]
   + x[25,13] + x[26,13] + x[27,13] + x[28,13] + x[29,13] + x[30,13]
   + x[31,13] + x[32,13] + x[33,13] + x[34,13] + x[35,13] + x[36,13]
   - 2 y[13] >= 0
 R51: x[0,14] + x[1,14] + x[2,14] + x[3,14] + x[4,14] + x[5,14] + x[6,14]
   + x[7,14] + x[8,14] + x[9,14] + x[10,14] + x[11,14] + x[12,14]
   + x[13,14] + x[14,14] + x[15,14] + x[16,14] + x[17,14] + x[18,14]
   + x[19,14] + x[20,14] + x[21,14] + x[22,14] + x[23,14] + x[24,14]
   + x[25,14] + x[26,14] + x[27,14] + x[28,14] + x[29,14] + x[30,14]
   + x[31,14] + x[32,14] + x[33,14] + x[34,14] + x[35,14] + x[36,14]
   - 2 y[14] >= 0
 R52: x[0,15] + x[1,15] + x[2,15] + x[3,15] + x[4,15] + x[5,15] + x[6,15]
   + x[7,15] + x[8,15] + x[9,15] + x[10,15] + x[11,15] + x[12,15]
   + x[13,15] + x[14,15] + x[15,15] + x[16,15] + x[17,15] + x[18,15]
   + x[19,15] + x[20,15] + x[21,15] + x[22,15] + x[23,15] + x[24,15]
   + x[25,15] + x[26,15] + x[27,15] + x[28,15] + x[29,15] + x[30,15]
   + x[31,15] + x[32,15] + x[33,15] + x[34,15] + x[35,15] + x[36,15]
   - 2 y[15] >= 0
 R53: x[0,16] + x[1,16] + x[2,16] + x[3,16] + x[4,16] + x[5,16] + x[6,16]
   + x[7,16] + x[8,16] + x[9,16] + x[10,16] + x[11,16] + x[12,16]
   + x[13,16] + x[14,16] + x[15,16] + x[16,16] + x[17,16] + x[18,16]
   + x[19,16] + x[20,16] + x[21,16] + x[22,16] + x[23,16] + x[24,16]
   + x[25,16] + x[26,16] + x[27,16] + x[28,16] + x[29,16] + x[30,16]
   + x[31,16] + x[32,16] + x[33,16] + x[34,16] + x[35,16] + x[36,16]
   - 2 y[16] >= 0
 R54: x[0,17] + x[1,17] + x[2,17] + x[3,17] + x[4,17] + x[5,17] + x[6,17]
   + x[7,17] + x[8,17] + x[9,17] + x[10,17] + x[11,17] + x[12,17]
   + x[13,17] + x[14,17] + x[15,17] + x[16,17] + x[17,17] + x[18,17]
   + x[19,17] + x[20,17] + x[21,17] + x[22,17] + x[23,17] + x[24,17]
   + x[25,17] + x[26,17] + x[27,17] + x[28,17] + x[29,17] + x[30,17]
   + x[31,17] + x[32,17] + x[33,17] + x[34,17] + x[35,17] + x[36,17]
   - 2 y[17] >= 0
 R55: x[0,0] + x[1,0] + x[2,0] + x[3,0] + x[4,0] + x[5,0] + x[6,0] + x[7,0]
   + x[8,0] + x[9,0] + x[10,0] + x[11,0] + x[12,0] + x[13,0] + x[14,0]
   + x[15,0] + x[16,0] + x[17,0] + x[18,0] + x[19,0] + x[20,0] + x[21,0]
   + x[22,0] + x[23,0] + x[24,0] + x[25,0] + x[26,0] + x[27,0] + x[28,0]
   + x[29,0] + x[30,0] + x[31,0] + x[32,0] + x[33,0] + x[34,0] + x[35,0]
   + x[36,0] - 3 y[0] <= 0
 R56: x[0,1] + x[1,1] + x[2,1] + x[3,1] + x[4,1] + x[5,1] + x[6,1] + x[7,1]
   + x[8,1] + x[9,1] + x[10,1] + x[11,1] + x[12,1] + x[13,1] + x[14,1]
   + x[15,1] + x[16,1] + x[17,1] + x[18,1] + x[19,1] + x[20,1] + x[21,1]
   + x[22,1] + x[23,1] + x[24,1] + x[25,1] + x[26,1] + x[27,1] + x[28,1]
   + x[29,1] + x[30,1] + x[31,1] + x[32,1] + x[33,1] + x[34,1] + x[35,1]
   + x[36,1] - 3 y[1] <= 0
 R57: x[0,2] + x[1,2] + x[2,2] + x[3,2] + x[4,2] + x[5,2] + x[6,2] + x[7,2]
   + x[8,2] + x[9,2] + x[10,2] + x[11,2] + x[12,2] + x[13,2] + x[14,2]
   + x[15,2] + x[16,2] + x[17,2] + x[18,2] + x[19,2] + x[20,2] + x[21,2]
   + x[22,2] + x[23,2] + x[24,2] + x[25,2] + x[26,2] + x[27,2] + x[28,2]
   + x[29,2] + x[30,2] + x[31,2] + x[32,2] + x[33,2] + x[34,2] + x[35,2]
   + x[36,2] - 3 y[2] <= 0
 R58: x[0,3] + x[1,3] + x[2,3] + x[3,3] + x[4,3] + x[5,3] + x[6,3] + x[7,3]
   + x[8,3] + x[9,3] + x[10,3] + x[11,3] + x[12,3] + x[13,3] + x[14,3]
   + x[15,3] + x[16,3] + x[17,3] + x[18,3] + x[19,3] + x[20,3] + x[21,3]
   + x[22,3] + x[23,3] + x[24,3] + x[25,3] + x[26,3] + x[27,3] + x[28,3]
   + x[29,3] + x[30,3] + x[31,3] + x[32,3] + x[33,3] + x[34,3] + x[35,3]
   + x[36,3] - 3 y[3] <= 0
 R59: x[0,4] + x[1,4] + x[2,4] + x[3,4] + x[4,4] + x[5,4] + x[6,4] + x[7,4]
   + x[8,4] + x[9,4] + x[10,4] + x[11,4] + x[12,4] + x[13,4] + x[14,4]
   + x[15,4] + x[16,4] + x[17,4] + x[18,4] + x[19,4] + x[20,4] + x[21,4]
   + x[22,4] + x[23,4] + x[24,4] + x[25,4] + x[26,4] + x[27,4] + x[28,4]
   + x[29,4] + x[30,4] + x[31,4] + x[32,4] + x[33,4] + x[34,4] + x[35,4]
   + x[36,4] - 3 y[4] <= 0
 R60: x[0,5] + x[1,5] + x[2,5] + x[3,5] + x[4,5] + x[5,5] + x[6,5] + x[7,5]
   + x[8,5] + x[9,5] + x[10,5] + x[11,5] + x[12,5] + x[13,5] + x[14,5]
   + x[15,5] + x[16,5] + x[17,5] + x[18,5] + x[19,5] + x[20,5] + x[21,5]
   + x[22,5] + x[23,5] + x[24,5] + x[25,5] + x[26,5] + x[27,5] + x[28,5]
   + x[29,5] + x[30,5] + x[31,5] + x[32,5] + x[33,5] + x[34,5] + x[35,5]
   + x[36,5] - 3 y[5] <= 0
 R61: x[0,6] + x[1,6] + x[2,6] + x[3,6] + x[4,6] + x[5,6] + x[6,6] + x[7,6]
   + x[8,6] + x[9,6] + x[10,6] + x[11,6] + x[12,6] + x[13,6] + x[14,6]
   + x[15,6] + x[16,6] + x[17,6] + x[18,6] + x[19,6] + x[20,6] + x[21,6]
   + x[22,6] + x[23,6] + x[24,6] + x[25,6] + x[26,6] + x[27,6] + x[28,6]
   + x[29,6] + x[30,6] + x[31,6] + x[32,6] + x[33,6] + x[34,6] + x[35,6]
   + x[36,6] - 3 y[6] <= 0
 R62: x[0,7] + x[1,7] + x[2,7] + x[3,7] + x[4,7] + x[5,7] + x[6,7] + x[7,7]
   + x[8,7] + x[9,7] + x[10,7] + x[11,7] + x[12,7] + x[13,7] + x[14,7]
   + x[15,7] + x[16,7] + x[17,7] + x[18,7] + x[19,7] + x[20,7] + x[21,7]
   + x[22,7] + x[23,7] + x[24,7] + x[25,7] + x[26,7] + x[27,7] + x[28,7]
   + x[29,7] + x[30,7] + x[31,7] + x[32,7] + x[33,7] + x[34,7] + x[35,7]
   + x[36,7] - 3 y[7] <= 0
 R63: x[0,8] + x[1,8] + x[2,8] + x[3,8] + x[4,8] + x[5,8] + x[6,8] + x[7,8]
   + x[8,8] + x[9,8] + x[10,8] + x[11,8] + x[12,8] + x[13,8] + x[14,8]
   + x[15,8] + x[16,8] + x[17,8] + x[18,8] + x[19,8] + x[20,8] + x[21,8]
   + x[22,8] + x[23,8] + x[24,8] + x[25,8] + x[26,8] + x[27,8] + x[28,8]
   + x[29,8] + x[30,8] + x[31,8] + x[32,8] + x[33,8] + x[34,8] + x[35,8]
   + x[36,8] - 3 y[8] <= 0
 R64: x[0,9] + x[1,9] + x[2,9] + x[3,9] + x[4,9] + x[5,9] + x[6,9] + x[7,9]
   + x[8,9] + x[9,9] + x[10,9] + x[11,9] + x[12,9] + x[13,9] + x[14,9]
   + x[15,9] + x[16,9] + x[17,9] + x[18,9] + x[19,9] + x[20,9] + x[21,9]
   + x[22,9] + x[23,9] + x[24,9] + x[25,9] + x[26,9] + x[27,9] + x[28,9]
   + x[29,9] + x[30,9] + x[31,9] + x[32,9] + x[33,9] + x[34,9] + x[35,9]
   + x[36,9] - 3 y[9] <= 0
 R65: x[0,10] + x[1,10] + x[2,10] + x[3,10] + x[4,10] + x[5,10] + x[6,10]
   + x[7,10] + x[8,10] + x[9,10] + x[10,10] + x[11,10] + x[12,10]
   + x[13,10] + x[14,10] + x[15,10] + x[16,10] + x[17,10] + x[18,10]
   + x[19,10] + x[20,10] + x[21,10] + x[22,10] + x[23,10] + x[24,10]
   + x[25,10] + x[26,10] + x[27,10] + x[28,10] + x[29,10] + x[30,10]
   + x[31,10] + x[32,10] + x[33,10] + x[34,10] + x[35,10] + x[36,10]
   - 3 y[10] <= 0
 R66: x[0,11] + x[1,11] + x[2,11] + x[3,11] + x[4,11] + x[5,11] + x[6,11]
   + x[7,11] + x[8,11] + x[9,11] + x[10,11] + x[11,11] + x[12,11]
   + x[13,11] + x[14,11] + x[15,11] + x[16,11] + x[17,11] + x[18,11]
   + x[19,11] + x[20,11] + x[21,11] + x[22,11] + x[23,11] + x[24,11]
   + x[25,11] + x[26,11] + x[27,11] + x[28,11] + x[29,11] + x[30,11]
   + x[31,11] + x[32,11] + x[33,11] + x[34,11] + x[35,11] + x[36,11]
   - 3 y[11] <= 0
 R67: x[0,12] + x[1,12] + x[2,12] + x[3,12] + x[4,12] + x[5,12] + x[6,12]
   + x[7,12] + x[8,12] + x[9,12] + x[10,12] + x[11,12] + x[12,12]
   + x[13,12] + x[14,12] + x[15,12] + x[16,12] + x[17,12] + x[18,12]
   + x[19,12] + x[20,12] + x[21,12] + x[22,12] + x[23,12] + x[24,12]
   + x[25,12] + x[26,12] + x[27,12] + x[28,12] + x[29,12] + x[30,12]
   + x[31,12] + x[32,12] + x[33,12] + x[34,12] + x[35,12] + x[36,12]
   - 3 y[12] <= 0
 R68: x[0,13] + x[1,13] + x[2,13] + x[3,13] + x[4,13] + x[5,13] + x[6,13]
   + x[7,13] + x[8,13] + x[9,13] + x[10,13] + x[11,13] + x[12,13]
   + x[13,13] + x[14,13] + x[15,13] + x[16,13] + x[17,13] + x[18,13]
   + x[19,13] + x[20,13] + x[21,13] + x[22,13] + x[23,13] + x[24,13]
   + x[25,13] + x[26,13] + x[27,13] + x[28,13] + x[29,13] + x[30,13]
   + x[31,13] + x[32,13] + x[33,13] + x[34,13] + x[35,13] + x[36,13]
   - 3 y[13] <= 0
 R69: x[0,14] + x[1,14] + x[2,14] + x[3,14] + x[4,14] + x[5,14] + x[6,14]
   + x[7,14] + x[8,14] + x[9,14] + x[10,14] + x[11,14] + x[12,14]
   + x[13,14] + x[14,14] + x[15,14] + x[16,14] + x[17,14] + x[18,14]
   + x[19,14] + x[20,14] + x[21,14] + x[22,14] + x[23,14] + x[24,14]
   + x[25,14] + x[26,14] + x[27,14] + x[28,14] + x[29,14] + x[30,14]
   + x[31,14] + x[32,14] + x[33,14] + x[34,14] + x[35,14] + x[36,14]
   - 3 y[14] <= 0
 R70: x[0,15] + x[1,15] + x[2,15] + x[3,15] + x[4,15] + x[5,15] + x[6,15]
   + x[7,15] + x[8,15] + x[9,15] + x[10,15] + x[11,15] + x[12,15]
   + x[13,15] + x[14,15] + x[15,15] + x[16,15] + x[17,15] + x[18,15]
   + x[19,15] + x[20,15] + x[21,15] + x[22,15] + x[23,15] + x[24,15]
   + x[25,15] + x[26,15] + x[27,15] + x[28,15] + x[29,15] + x[30,15]
   + x[31,15] + x[32,15] + x[33,15] + x[34,15] + x[35,15] + x[36,15]
   - 3 y[15] <= 0
 R71: x[0,16] + x[1,16] + x[2,16] + x[3,16] + x[4,16] + x[5,16] + x[6,16]
   + x[7,16] + x[8,16] + x[9,16] + x[10,16] + x[11,16] + x[12,16]
   + x[13,16] + x[14,16] + x[15,16] + x[16,16] + x[17,16] + x[18,16]
   + x[19,16] + x[20,16] + x[21,16] + x[22,16] + x[23,16] + x[24,16]
   + x[25,16] + x[26,16] + x[27,16] + x[28,16] + x[29,16] + x[30,16]
   + x[31,16] + x[32,16] + x[33,16] + x[34,16] + x[35,16] + x[36,16]
   - 3 y[16] <= 0
 R72: x[0,17] + x[1,17] + x[2,17] + x[3,17] + x[4,17] + x[5,17] + x[6,17]
   + x[7,17] + x[8,17] + x[9,17] + x[10,17] + x[11,17] + x[12,17]
   + x[13,17] + x[14,17] + x[15,17] + x[16,17] + x[17,17] + x[18,17]
   + x[19,17] + x[20,17] + x[21,17] + x[22,17] + x[23,17] + x[24,17]
   + x[25,17] + x[26,17] + x[27,17] + x[28,17] + x[29,17] + x[30,17]
   + x[31,17] + x[32,17] + x[33,17] + x[34,17] + x[35,17] + x[36,17]
   - 3 y[17] <= 0
 R73: 45 y[0] - s[0] + z <= 45
 R74: 45 y[1] - s[1] + z <= 45
 R75: 45 y[2] - s[2] + z <= 45
 R76: 45 y[3] - s[3] + z <= 45
 R77: 45 y[4] - s[4] + z <= 45
 R78: 45 y[5] - s[5] + z <= 45
 R79: 45 y[6] - s[6] + z <= 45
 R80: 45 y[7] - s[7] + z <= 45
 R81: 45 y[8] - s[8] + z <= 45
 R82: 45 y[9] - s[9] + z <= 45
 R83: 45 y[10] - s[10] + z <= 45
 R84: 45 y[11] - s[11] + z <= 45
 R85: 45 y[12] - s[12] + z <= 45
 R86: 45 y[13] - s[13] + z <= 45
 R87: 45 y[14] - s[14] + z <= 45
 R88: 45 y[15] - s[15] + z <= 45
 R89: 45 y[16] - s[16] + z <= 45
 R90: 45 y[17] - s[17] + z <= 45
 R91: - 10 x[1,0] - 30 x[2,0] - 20 x[3,0] - 30 x[4,0] - 10 x[5,0]
   - 20 x[7,0] - 20 x[8,0] - 10 x[10,0] - 20 x[11,0] - 10 x[12,0]
   - 20 x[13,0] - 10 x[14,0] - 10 x[16,0] - 10 x[18,0] - 10 x[19,0]
   - 10 x[21,0] - 10 x[22,0] - 10 x[25,0] - 20 x[26,0] - 10 x[28,0]
   - 10 x[30,0] - 10 x[31,0] - 10 x[32,0] - 20 x[34,0] - 10 x[35,0]
   - 10 x[36,0] + s[0] = 0
 R92: - 10 x[1,1] - 30 x[2,1] - 20 x[3,1] - 30 x[4,1] - 10 x[5,1]
   - 20 x[7,1] - 20 x[8,1] - 10 x[10,1] - 20 x[11,1] - 10 x[12,1]
   - 20 x[13,1] - 10 x[14,1] - 10 x[16,1] - 10 x[18,1] - 10 x[19,1]
   - 10 x[21,1] - 10 x[22,1] - 10 x[25,1] - 20 x[26,1] - 10 x[28,1]
   - 10 x[30,1] - 10 x[31,1] - 10 x[32,1] - 20 x[34,1] - 10 x[35,1]
   - 10 x[36,1] + s[1] = 0
 R93: - 10 x[1,2] - 30 x[2,2] - 20 x[3,2] - 30 x[4,2] - 10 x[5,2]
   - 20 x[7,2] - 20 x[8,2] - 10 x[10,2] - 20 x[11,2] - 10 x[12,2]
   - 20 x[13,2] - 10 x[14,2] - 10 x[16,2] - 10 x[18,2] - 10 x[19,2]
   - 10 x[21,2] - 10 x[22,2] - 10 x[25,2] - 20 x[26,2] - 10 x[28,2]
   - 10 x[30,2] - 10 x[31,2] - 10 x[32,2] - 20 x[34,2] - 10 x[35,2]
   - 10 x[36,2] + s[2] = 0
 R94: - 10 x[1,3] - 30 x[2,3] - 20 x[3,3] - 30 x[4,3] - 10 x[5,3]
   - 20 x[7,3] - 20 x[8,3] - 10 x[10,3] - 20 x[11,3] - 10 x[12,3]
   - 20 x[13,3] - 10 x[14,3] - 10 x[16,3] - 10 x[18,3] - 10 x[19,3]
   - 10 x[21,3] - 10 x[22,3] - 10 x[25,3] - 20 x[26,3] - 10 x[28,3]
   - 10 x[30,3] - 10 x[31,3] - 10 x[32,3] - 20 x[34,3] - 10 x[35,3]
   - 10 x[36,3] + s[3] = 0
 R95: - 10 x[1,4] - 30 x[2,4] - 20 x[3,4] - 30 x[4,4] - 10 x[5,4]
   - 20 x[7,4] - 20 x[8,4] - 10 x[10,4] - 20 x[11,4] - 10 x[12,4]
   - 20 x[13,4] - 10 x[14,4] - 10 x[16,4] - 10 x[18,4] - 10 x[19,4]
   - 10 x[21,4] - 10 x[22,4] - 10 x[25,4] - 20 x[26,4] - 10 x[28,4]
   - 10 x[30,4] - 10 x[31,4] - 10 x[32,4] - 20 x[34,4] - 10 x[35,4]
   - 10 x[36,4] + s[4] = 0
 R96: - 10 x[1,5] - 30 x[2,5] - 20 x[3,5] - 30 x[4,5] - 10 x[5,5]
   - 20 x[7,5] - 20 x[8,5] - 10 x[10,5] - 20 x[11,5] - 10 x[12,5]
   - 20 x[13,5] - 10 x[14,5] - 10 x[16,5] - 10 x[18,5] - 10 x[19,5]
   - 10 x[21,5] - 10 x[22,5] - 10 x[25,5] - 20 x[26,5] - 10 x[28,5]
   - 10 x[30,5] - 10 x[31,5] - 10 x[32,5] - 20 x[34,5] - 10 x[35,5]
   - 10 x[36,5] + s[5] = 0
 R97: - 10 x[1,6] - 30 x[2,6] - 20 x[3,6] - 30 x[4,6] - 10 x[5,6]
   - 20 x[7,6] - 20 x[8,6] - 10 x[10,6] - 20 x[11,6] - 10 x[12,6]
   - 20 x[13,6] - 10 x[14,6] - 10 x[16,6] - 10 x[18,6] - 10 x[19,6]
   - 10 x[21,6] - 10 x[22,6] - 10 x[25,6] - 20 x[26,6] - 10 x[28,6]
   - 10 x[30,6] - 10 x[31,6] - 10 x[32,6] - 20 x[34,6] - 10 x[35,6]
   - 10 x[36,6] + s[6] = 0
 R98: - 10 x[1,7] - 30 x[2,7] - 20 x[3,7] - 30 x[4,7] - 10 x[5,7]
   - 20 x[7,7] - 20 x[8,7] - 10 x[10,7] - 20 x[11,7] - 10 x[12,7]
   - 20 x[13,7] - 10 x[14,7] - 10 x[16,7] - 10 x[18,7] - 10 x[19,7]
   - 10 x[21,7] - 10 x[22,7] - 10 x[25,7] - 20 x[26,7] - 10 x[28,7]
   - 10 x[30,7] - 10 x[31,7] - 10 x[32,7] - 20 x[34,7] - 10 x[35,7]
   - 10 x[36,7] + s[7] = 0
 R99: - 10 x[1,8] - 30 x[2,8] - 20 x[3,8] - 30 x[4,8] - 10 x[5,8]
   - 20 x[7,8] - 20 x[8,8] - 10 x[10,8] - 20 x[11,8] - 10 x[12,8]
   - 20 x[13,8] - 10 x[14,8] - 10 x[16,8] - 10 x[18,8] - 10 x[19,8]
   - 10 x[21,8] - 10 x[22,8] - 10 x[25,8] - 20 x[26,8] - 10 x[28,8]
   - 10 x[30,8] - 10 x[31,8] - 10 x[32,8] - 20 x[34,8] - 10 x[35,8]
   - 10 x[36,8] + s[8] = 0
 R100: - 10 x[1,9] - 30 x[2,9] - 20 x[3,9] - 30 x[4,9] - 10 x[5,9]
   - 20 x[7,9] - 20 x[8,9] - 10 x[10,9] - 20 x[11,9] - 10 x[12,9]
   - 20 x[13,9] - 10 x[14,9] - 10 x[16,9] - 10 x[18,9] - 10 x[19,9]
   - 10 x[21,9] - 10 x[22,9] - 10 x[25,9] - 20 x[26,9] - 10 x[28,9]
   - 10 x[30,9] - 10 x[31,9] - 10 x[32,9] - 20 x[34,9] - 10 x[35,9]
   - 10 x[36,9] + s[9] = 0
 R101: - 10 x[1,10] - 30 x[2,10] - 20 x[3,10] - 30 x[4,10] - 10 x[5,10]
   - 20 x[7,10] - 20 x[8,10] - 10 x[10,10] - 20 x[11,10] - 10 x[12,10]
   - 20 x[13,10] - 10 x[14,10] - 10 x[16,10] - 10 x[18,10] - 10 x[19,10]
   - 10 x[21,10] - 10 x[22,10] - 10 x[25,10] - 20 x[26,10] - 10 x[28,10]
   - 10 x[30,10] - 10 x[31,10] - 10 x[32,10] - 20 x[34,10] - 10 x[35,10]
   - 10 x[36,10] + s[10] = 0
 R102: - 10 x[1,11] - 30 x[2,11] - 20 x[3,11] - 30 x[4,11] - 10 x[5,11]
   - 20 x[7,11] - 20 x[8,11] - 10 x[10,11] - 20 x[11,11] - 10 x[12,11]
   - 20 x[13,11] - 10 x[14,11] - 10 x[16,11] - 10 x[18,11] - 10 x[19,11]
   - 10 x[21,11] - 10 x[22,11] - 10 x[25,11] - 20 x[26,11] - 10 x[28,11]
   - 10 x[30,11] - 10 x[31,11] - 10 x[32,11] - 20 x[34,11] - 10 x[35,11]
   - 10 x[36,11] + s[11] = 0
 R103: - 10 x[1,12] - 30 x[2,12] - 20 x[3,12] - 30 x[4,12] - 10 x[5,12]
   - 20 x[7,12] - 20 x[8,12] - 10 x[10,12] - 20 x[11,12] - 10 x[12,12]
   - 20 x[13,12] - 10 x[14,12] - 10 x[16,12] - 10 x[18,12] - 10 x[19,12]
   - 10 x[21,12] - 10 x[22,12] - 10 x[25,12] - 20 x[26,12] - 10 x[28,12]
   - 10 x[30,12] - 10 x[31,12] - 10 x[32,12] - 20 x[34,12] - 10 x[35,12]
   - 10 x[36,12] + s[12] = 0
 R104: - 10 x[1,13] - 30 x[2,13] - 20 x[3,13] - 30 x[4,13] - 10 x[5,13]
   - 20 x[7,13] - 20 x[8,13] - 10 x[10,13] - 20 x[11,13] - 10 x[12,13]
   - 20 x[13,13] - 10 x[14,13] - 10 x[16,13] - 10 x[18,13] - 10 x[19,13]
   - 10 x[21,13] - 10 x[22,13] - 10 x[25,13] - 20 x[26,13] - 10 x[28,13]
   - 10 x[30,13] - 10 x[31,13] - 10 x[32,13] - 20 x[34,13] - 10 x[35,13]
   - 10 x[36,13] + s[13] = 0
 R105: - 10 x[1,14] - 30 x[2,14] - 20 x[3,14] - 30 x[4,14] - 10 x[5,14]
   - 20 x[7,14] - 20 x[8,14] - 10 x[10,14] - 20 x[11,14] - 10 x[12,14]
   - 20 x[13,14] - 10 x[14,14] - 10 x[16,14] - 10 x[18,14] - 10 x[19,14]
   - 10 x[21,14] - 10 x[22,14] - 10 x[25,14] - 20 x[26,14] - 10 x[28,14]
   - 10 x[30,14] - 10 x[31,14] - 10 x[32,14] - 20 x[34,14] - 10 x[35,14]
   - 10 x[36,14] + s[14] = 0
 R106: - 10 x[1,15] - 30 x[2,15] - 20 x[3,15] - 30 x[4,15] - 10 x[5,15]
   - 20 x[7,15] - 20 x[8,15] - 10 x[10,15] - 20 x[11,15] - 10 x[12,15]
   - 20 x[13,15] - 10 x[14,15] - 10 x[16,15] - 10 x[18,15] - 10 x[19,15]
   - 10 x[21,15] - 10 x[22,15] - 10 x[25,15] - 20 x[26,15] - 10 x[28,15]
   - 10 x[30,15] - 10 x[31,15] - 10 x[32,15] - 20 x[34,15] - 10 x[35,15]
   - 10 x[36,15] + s[15] = 0
 R107: - 10 x[1,16] - 30 x[2,16] - 20 x[3,16] - 30 x[4,16] - 10 x[5,16]
   - 20 x[7,16] - 20 x[8,16] - 10 x[10,16] - 20 x[11,16] - 10 x[12,16]
   - 20 x[13,16] - 10 x[14,16] - 10 x[16,16] - 10 x[18,16] - 10 x[19,16]
   - 10 x[21,16] - 10 x[22,16] - 10 x[25,16] - 20 x[26,16] - 10 x[28,16]
   - 10 x[30,16] - 10 x[31,16] - 10 x[32,16] - 20 x[34,16] - 10 x[35,16]
   - 10 x[36,16] + s[16] = 0
 R108: - 10 x[1,17] - 30 x[2,17] - 20 x[3,17] - 30 x[4,17] - 10 x[5,17]
   - 20 x[7,17] - 20 x[8,17] - 10 x[10,17] - 20 x[11,17] - 10 x[12,17]
   - 20 x[13,17] - 10 x[14,17] - 10 x[16,17] - 10 x[18,17] - 10 x[19,17]
   - 10 x[21,17] - 10 x[22,17] - 10 x[25,17] - 20 x[26,17] - 10 x[28,17]
   - 10 x[30,17] - 10 x[31,17] - 10 x[32,17] - 20 x[34,17] - 10 x[35,17]
   - 10 x[36,17] + s[17] = 0
 R109: y[0] + y[1] + y[2] + y[3] + y[4] + y[5] + y[6] + y[7] + y[8] + y[9]
   + y[10] + y[11] + y[12] + y[13] + y[14] + y[15] + y[16] + y[17] = 13
 R110: s[0] - s[1] <= 0
 R111: s[1] - s[2] <= 0
 R112: s[2] - s[3] <= 0
 R113: s[3] - s[4] <= 0
 R114: s[4] - s[5] <= 0
 R115: s[5] - s[6] <= 0
 R116: s[6] - s[7] <= 0
 R117: s[7] - s[8] <= 0
 R118: s[8] - s[9] <= 0
 R119: s[9] - s[10] <= 0
 R120: s[10] - s[11] <= 0
 R121: s[11] - s[12] <= 0
 R122: s[12] - s[13] <= 0
 R123: s[13] - s[14] <= 0
 R124: s[14] - s[15] <= 0
 R125: s[15] - s[16] <= 0
 R126: s[16] - s[17] <= 0
Bounds
Binaries
 x[0,0] x[0,1] x[0,2] x[0,3] x[0,4] x[0,5] x[0,6] x[0,7] x[0,8] x[0,9]
 x[0,10] x[0,11] x[0,12] x[0,13] x[0,14] x[0,15] x[0,16] x[0,17] x[1,0]
 x[1,1] x[1,2] x[1,3] x[1,4] x[1,5] x[1,6] x[1,7] x[1,8] x[1,9] x[1,10]
 x[1,11] x[1,12] x[1,13] x[1,14] x[1,15] x[1,16] x[1,17] x[2,0] x[2,1]
 x[2,2] x[2,3] x[2,4] x[2,5] x[2,6] x[2,7] x[2,8] x[2,9] x[2,10] x[2,11]
 x[2,12] x[2,13] x[2,14] x[2,15] x[2,16] x[2,17] x[3,0] x[3,1] x[3,2]
 x[3,3] x[3,4] x[3,5] x[3,6] x[3,7] x[3,8] x[3,9] x[3,10] x[3,11] x[3,12]
 x[3,13] x[3,14] x[3,15] x[3,16] x[3,17] x[4,0] x[4,1] x[4,2] x[4,3] x[4,4]
 x[4,5] x[4,6] x[4,7] x[4,8] x[4,9] x[4,10] x[4,11] x[4,12] x[4,13] x[4,14]
 x[4,15] x[4,16] x[4,17] x[5,0] x[5,1] x[5,2] x[5,3] x[5,4] x[5,5] x[5,6]
 x[5,7] x[5,8] x[5,9] x[5,10] x[5,11] x[5,12] x[5,13] x[5,14] x[5,15]
 x[5,16] x[5,17] x[6,0] x[6,1] x[6,2] x[6,3] x[6,4] x[6,5] x[6,6] x[6,7]
 x[6,8] x[6,9] x[6,10] x[6,11] x[6,12] x[6,13] x[6,14] x[6,15] x[6,16]
 x[6,17] x[7,0] x[7,1] x[7,2] x[7,3] x[7,4] x[7,5] x[7,6] x[7,7] x[7,8]
 x[7,9] x[7,10] x[7,11] x[7,12] x[7,13] x[7,14] x[7,15] x[7,16] x[7,17]
 x[8,0] x[8,1] x[8,2] x[8,3] x[8,4] x[8,5] x[8,6] x[8,7] x[8,8] x[8,9]
 x[8,10] x[8,11] x[8,12] x[8,13] x[8,14] x[8,15] x[8,16] x[8,17] x[9,0]
 x[9,1] x[9,2] x[9,3] x[9,4] x[9,5] x[9,6] x[9,7] x[9,8] x[9,9] x[9,10]
 x[9,11] x[9,12] x[9,13] x[9,14] x[9,15] x[9,16] x[9,17] x[10,0] x[10,1]
 x[10,2] x[10,3] x[10,4] x[10,5] x[10,6] x[10,7] x[10,8] x[10,9] x[10,10]
 x[10,11] x[10,12] x[10,13] x[10,14] x[10,15] x[10,16] x[10,17] x[11,0]
 x[11,1] x[11,2] x[11,3] x[11,4] x[11,5] x[11,6] x[11,7] x[11,8] x[11,9]
 x[11,10] x[11,11] x[11,12] x[11,13] x[11,14] x[11,15] x[11,16] x[11,17]
 x[12,0] x[12,1] x[12,2] x[12,3] x[12,4] x[12,5] x[12,6] x[12,7] x[12,8]
 x[12,9] x[12,10] x[12,11] x[12,12] x[12,13] x[12,14] x[12,15] x[12,16]
 x[12,17] x[13,0] x[13,1] x[13,2] x[13,3] x[13,4] x[13,5] x[13,6] x[13,7]
 x[13,8] x[13,9] x[13,10] x[13,11] x[13,12] x[13,13] x[13,14] x[13,15]
 x[13,16] x[13,17] x[14,0] x[14,1] x[14,2] x[14,3] x[14,4] x[14,5] x[14,6]
 x[14,7] x[14,8] x[14,9] x[14,10] x[14,11] x[14,12] x[14,13] x[14,14]
 x[14,15] x[14,16] x[14,17] x[15,0] x[15,1] x[15,2] x[15,3] x[15,4] x[15,5]
 x[15,6] x[15,7] x[15,8] x[15,9] x[15,10] x[15,11] x[15,12] x[15,13]
 x[15,14] x[15,15] x[15,16] x[15,17] x[16,0] x[16,1] x[16,2] x[16,3]
 x[16,4] x[16,5] x[16,6] x[16,7] x[16,8] x[16,9] x[16,10] x[16,11] x[16,12]
 x[16,13] x[16,14] x[16,15] x[16,16] x[16,17] x[17,0] x[17,1] x[17,2]
 x[17,3] x[17,4] x[17,5] x[17,6] x[17,7] x[17,8] x[17,9] x[17,10] x[17,11]
 x[17,12] x[17,13] x[17,14] x[17,15] x[17,16] x[17,17] x[18,0] x[18,1]
 x[18,2] x[18,3] x[18,4] x[18,5] x[18,6] x[18,7] x[18,8] x[18,9] x[18,10]
 x[18,11] x[18,12] x[18,13] x[18,14] x[18,15] x[18,16] x[18,17] x[19,0]
 x[19,1] x[19,2] x[19,3] x[19,4] x[19,5] x[19,6] x[19,7] x[19,8] x[19,9]
 x[19,10] x[19,11] x[19,12] x[19,13] x[19,14] x[19,15] x[19,16] x[19,17]
 x[20,0] x[20,1] x[20,2] x[20,3] x[20,4] x[20,5] x[20,6] x[20,7] x[20,8]
 x[20,9] x[20,10] x[20,11] x[20,12] x[20,13] x[20,14] x[20,15] x[20,16]
 x[20,17] x[21,0] x[21,1] x[21,2] x[21,3] x[21,4] x[21,5] x[21,6] x[21,7]
 x[21,8] x[21,9] x[21,10] x[21,11] x[21,12] x[21,13] x[21,14] x[21,15]
 x[21,16] x[21,17] x[22,0] x[22,1] x[22,2] x[22,3] x[22,4] x[22,5] x[22,6]
 x[22,7] x[22,8] x[22,9] x[22,10] x[22,11] x[22,12] x[22,13] x[22,14]
 x[22,15] x[22,16] x[22,17] x[23,0] x[23,1] x[23,2] x[23,3] x[23,4] x[23,5]
 x[23,6] x[23,7] x[23,8] x[23,9] x[23,10] x[23,11] x[23,12] x[23,13]
 x[23,14] x[23,15] x[23,16] x[23,17] x[24,0] x[24,1] x[24,2] x[24,3]
 x[24,4] x[24,5] x[24,6] x[24,7] x[24,8] x[24,9] x[24,10] x[24,11] x[24,12]
 x[24,13] x[24,14] x[24,15] x[24,16] x[24,17] x[25,0] x[25,1] x[25,2]
 x[25,3] x[25,4] x[25,5] x[25,6] x[25,7] x[25,8] x[25,9] x[25,10] x[25,11]
 x[25,12] x[25,13] x[25,14] x[25,15] x[25,16] x[25,17] x[26,0] x[26,1]
 x[26,2] x[26,3] x[26,4] x[26,5] x[26,6] x[26,7] x[26,8] x[26,9] x[26,10]
 x[26,11] x[26,12] x[26,13] x[26,14] x[26,15] x[26,16] x[26,17] x[27,0]
 x[27,1] x[27,2] x[27,3] x[27,4] x[27,5] x[27,6] x[27,7] x[27,8] x[27,9]
 x[27,10] x[27,11] x[27,12] x[27,13] x[27,14] x[27,15] x[27,16] x[27,17]
 x[28,0] x[28,1] x[28,2] x[28,3] x[28,4] x[28,5] x[28,6] x[28,7] x[28,8]
 x[28,9] x[28,10] x[28,11] x[28,12] x[28,13] x[28,14] x[28,15] x[28,16]
 x[28,17] x[29,0] x[29,1] x[29,2] x[29,3] x[29,4] x[29,5] x[29,6] x[29,7]
 x[29,8] x[29,9] x[29,10] x[29,11] x[29,12] x[29,13] x[29,14] x[29,15]
 x[29,16] x[29,17] x[30,0] x[30,1] x[30,2] x[30,3] x[30,4] x[30,5] x[30,6]
 x[30,7] x[30,8] x[30,9] x[30,10] x[30,11] x[30,12] x[30,13] x[30,14]
 x[30,15] x[30,16] x[30,17] x[31,0] x[31,1] x[31,2] x[31,3] x[31,4] x[31,5]
 x[31,6] x[31,7] x[31,8] x[31,9] x[31,10] x[31,11] x[31,12] x[31,13]
 x[31,14] x[31,15] x[31,16] x[31,17] x[32,0] x[32,1] x[32,2] x[32,3]
 x[32,4] x[32,5] x[32,6] x[32,7] x[32,8] x[32,9] x[32,10] x[32,11] x[32,12]
 x[32,13] x[32,14] x[32,15] x[32,16] x[32,17] x[33,0] x[33,1] x[33,2]
 x[33,3] x[33,4] x[33,5] x[33,6] x[33,7] x[33,8] x[33,9] x[33,10] x[33,11]
 x[33,12] x[33,13] x[33,14] x[33,15] x[33,16] x[33,17] x[34,0] x[34,1]
 x[34,2] x[34,3] x[34,4] x[34,5] x[34,6] x[34,7] x[34,8] x[34,9] x[34,10]
 x[34,11] x[34,12] x[34,13] x[34,14] x[34,15] x[34,16] x[34,17] x[35,0]
 x[35,1] x[35,2] x[35,3] x[35,4] x[35,5] x[35,6] x[35,7] x[35,8] x[35,9]
 x[35,10] x[35,11] x[35,12] x[35,13] x[35,14] x[35,15] x[35,16] x[35,17]
 x[36,0] x[36,1] x[36,2] x[36,3] x[36,4] x[36,5] x[36,6] x[36,7] x[36,8]
 x[36,9] x[36,10] x[36,11] x[36,12] x[36,13] x[36,14] x[36,15] x[36,16]
 x[36,17] y[0] y[1] y[2] y[3] y[4] y[5] y[6] y[7] y[8] y[9] y[10] y[11]
 y[12] y[13] y[14] y[15] y[16] y[17] z[0] z[1] z[2] z[3] z[4] z[5] z[6]
 z[7] z[8] z[9] z[10] z[11] z[12] z[13] z[14] z[15] z[16] z[17] z2[0] z2[1]
 z2[2] z2[3] z2[4] z2[5] z2[6] z2[7] z2[8] z2[9] z2[10] z2[11] z2[12]
 z2[13] z2[14] z2[15] z2[16] z2[17] z3[0] z3[1] z3[2] z3[3] z3[4] z3[5]
 z3[6] z3[7] z3[8] z3[9] z3[10] z3[11] z3[12] z3[13] z3[14] z3[15] z3[16]
 z3[17]
End
